NAME : sgb128.28422.tour
COMMENT : Cost = 1934_28422
COMMENT : Found by LKH [Keld Helsgaun] Thu Nov 16 20:48:27 2017
TYPE : TOUR
DIMENSION : 142
TOUR_SECTION
1
72
57
97
118
125
114
105
139
38
11
67
41
8
99
39
9
140
101
14
84
37
13
138
15
16
68
113
119
55
52
104
130
89
109
24
79
45
82
23
21
80
43
133
48
70
20
111
51
100
85
32
56
19
141
27
17
53
78
29
121
131
94
116
95
63
83
26
86
98
88
28
142
91
31
103
107
25
122
7
128
136
96
66
126
35
12
50
49
58
134
74
60
110
4
93
117
61
40
69
71
132
120
6
64
124
33
76
2
10
135
65
3
59
47
102
123
62
46
34
73
22
137
54
18
81
127
115
75
112
5
108
87
42
129
106
36
77
44
92
30
90
-1
EOF
